CPXPARAM_Read_DataCheck                          1
Found incumbent of value 0.000000 after 0.00 sec. (0.77 ticks)
Tried aggregator 1 time.
MIP Presolve modified 9 coefficients.
Reduced MIP has 2046 rows, 30015 columns, and 150060 nonzeros.
Reduced MIP has 30015 binaries, 0 generals, 0 SOSs, and 0 indicators.
Presolve time = 0.08 sec. (54.27 ticks)
Tried aggregator 1 time.
Reduced MIP has 2046 rows, 30015 columns, and 150060 nonzeros.
Reduced MIP has 30015 binaries, 0 generals, 0 SOSs, and 0 indicators.
Presolve time = 0.09 sec. (61.80 ticks)
Probing time = 0.03 sec. (7.70 ticks)
Clique table members: 59247.
MIP emphasis: balance optimality and feasibility.
MIP search method: dynamic search.
Parallel mode: deterministic, using up to 4 threads.
Root relaxation solution time = 0.22 sec. (133.43 ticks)

        Nodes                                         Cuts/
   Node  Left     Objective  IInf  Best Integer    Best Bound    ItCnt     Gap

*     0+    0                            0.0000   185014.0000              --- 
      0     0    96959.8704    20        0.0000    96959.8704     7174     --- 
*     0+    0                        67757.0000    96959.8704            43.10%
      0     0        cutoff          67757.0000    67757.0000    10785    0.00%
Elapsed time = 8.67 sec. (5427.71 ticks, tree = 0.01 MB, solutions = 2)

Clique cuts applied:  599
Mixed integer rounding cuts applied:  10
Gomory fractional cuts applied:  2

Root node processing (before b&c):
  Real time             =    8.67 sec. (5429.68 ticks)
Parallel b&c, 4 threads:
  Real time             =    0.00 sec. (0.00 ticks)
  Sync time (average)   =    0.00 sec.
  Wait time (average)   =    0.00 sec.
                          ------------
Total (root+branch&cut) =    8.67 sec. (5429.68 ticks)
